 # =================================================#
 # The code is used to calculate the DOS of the crystalline SiO2
 # The code is written by GYF (DUT, CHINA)
 # The email address: gaoyufei@dlut.edu.cn or gaoyufei_hit@163.com
 ##==============================================##
 variable        T_equilibrium     equal    1e5
 variable        E_equilibrium     equal    4e5
 variable        Tfinal            equal    300 
 variable        FDOS              equal    10
 variable        S_equilibrium     equal    1e5
 
 #==============The head of the programm===================#
 #====The order of Shell can not be used in the Windows====#
 dimension       3
 boundary        p   p   p
 units           metal
 atom_style      atomic
 processors      * * *
 newton          on

 #====================Atomic Structure======================#  
 read_restart    ../Optimize/tmp1.restart2

 group           O0      type     1
 group           Si0      type     2

 #==================potential======================#
      
 pair_style      vashishta
 pair_coeff      * *  /public/home/xdsc0365/software/lammps-7Aug19_correct/potentials/SiO.1997.vashishta O Si
 neighbor        2.0    nsq
 timestep        0.001

#============Opitimize the structure================#   
 compute        MyTemp  all  temp   
 thermo_style   custom  step temp c_MyTemp etotal press vol
 min_style      hftn
 min_modify     line     quadratic
 thermo         10000
 #minimize       1.0e-18 1.0e-10 1000  1000
 reset_timestep 0
  
#============Parameters initialization==============# 
 variable        Tdamp    equal    100*dt
 variable        Pdamp    equal    1000*dt 
  
#======================Heating======================# 
 restart         1000 tmp2.restart1 tmp2.restart2
 dump            config all custom 100000 wp.config.* id type x y z
 dump_modify     config sort  id
 dump_modify     config format line "%7d %3d %20.12g %20.12g %20.12g"
 velocity        all     create  ${Tfinal} 7675423 mom yes rot yes dist gaussian temp MyTemp
 #fix             NVT     all   nvt  temp  ${Tfinal} ${Tfinal} ${Tdamp}
 #run             ${T_equilibrium} 
 #unfix           NVT
  
 fix             nve      all     nve 
 run             ${E_equilibrium}    
 
 dump            DOS all custom ${FDOS} velocitySiO.txt vx vy vz
 dump_modify     DOS sort  id
 dump_modify     DOS format line "%20.6g %20.6g %20.6g"
 
 dump            DOS0 Si0 custom ${FDOS} velocitySi.txt vx vy vz
 dump_modify     DOS0 sort  id
 dump_modify     DOS0 format line "%20.6g %20.6g %20.6g"
 
 dump            DOS1 O0 custom ${FDOS} velocityO.txt vx vy vz
 dump_modify     DOS1 sort  id
 dump_modify     DOS1 format line "%20.6g %20.6g %20.6g"
 
 run             ${S_equilibrium} 

 unfix           NVE  
 undump          config
 undump          DOS
 undump          DOS0
 undump          DOS1
 restart         0  
#===================== end===========================
