 # =================================================#
 # The parameters used in my program m=1g/mol, k=1eV/Angstrom, a=1Angstrom
 # Originally written by Yanguang Zhou
 # Modified by Zheyi Zhang from DUT
 ##==============================================##
 variable        T_equilibrium     equal  1e5   # 1 ns
 variable        E_equilibrium     equal  1e7  # 10 ns
 variable        Tfinal            equal  300
 
 #==============The head of the programm===================#
 #====The order of Shell can not be used in the Windows====#
 
 dimension       3
 boundary        s   s   s
 units           metal
 atom_style      atomic
 processors      * * *
 newton          on
  
 #====================Atomic Structure======================#
 
 read_restart    ../../OP/tmp.restart2
 
 variable        dT      equal    100
 variable        TR      equal    ${Tfinal}+${dT}/2
 variable        TL      equal    ${Tfinal}-${dT}/2
 
 pair_style      vashishta 
 pair_coeff      * * /public/home/xdsc0369/work/zzyi/lammps/SiO2/SiO.1997.vashishta Si O
 neighbor        2.0    nsq
 timestep        0.001
 
 variable        Tdamp    equal    100*dt
 variable        Pdamp    equal    1000*dt
   
 compute         MyTemp  all  temp   
 thermo_style    custom  step temp c_MyTemp etotal press vol
 thermo_modify   flush   yes temp MyTemp lost warn
 thermo          1000 
 reset_timestep  0
 
#===================The ensemble===================#

 restart         1000   tmp.restart1 tmp.restart2
 velocity        all      create  ${Tfinal} 7675423 mom yes rot yes dist gaussian temp MyTemp
 fix             unthermal wall   setforce 0.0 0.0 0.0
 fix             nvt       mobile   nvt  temp  ${Tfinal} ${Tfinal} ${Tdamp}
 run             ${T_equilibrium} 
 unfix           nvt
 
 dump            config all custom 1 wp.config.* id type x y z
 dump_modify     config sort  id
 dump_modify     config format line "%7d %3d %20.12g %20.12g %20.12g"
 run             0    
 undump          config  
 reset_timestep  0
 restart         0
  
 restart         1000 tmp1.restart1 tmp1.restart2
 fix             nvt_source  source  nvt  temp  ${TR} ${TR} ${Tdamp}
 fix             nvt_sink    sink    nvt  temp  ${TL} ${TL} ${Tdamp}
 fix             nve  mobile1  nve
 
 compute         SiKE      mobile1    ke/atom
 variable        convert   equal     2.0/3.0*1.602e-19/1.38e-23
 variable        SiTemp    atom      c_SiKE*${convert}
 compute         Sichunk   mobile1    chunk/atom    bin/1d    z    lower    0.01    units    reduced
 fix             Si        mobile1    ave/chunk    1 500000 500000    Sichunk    v_SiTemp    file Si_tmp.profile
 fix             heatSi    all       ave/time  10000 1 10000  f_nvt_source  f_nvt_sink  ave one file Si_heatflux.dat 
 
 dump            config all custom 1000000 wp1.config.* id type x y z
 dump_modify     config sort  id
 dump_modify     config format line "%7d %3d %20.12g %20.12g %20.12g"
 
 run             ${E_equilibrium}
 restart         0 
 undump          config
 
#===================== end===========================
