#==========================================#
# Simulation for calculating specific heat  
# at 300K and 1 atm using LAMMPS package   
# Originally  ritten by zhangxiaoliang from DUT
# Modified by Zheyi Zhang from DUT      
#==========================================#
#===========Parameter Setting==============#
 variable     R_relax    equal     4e5
 variable     R_run      equal     2e5
 variable     T1         equal     290
 variable     T2         equal     310
#===========Program Initialization=========#
 units             metal
 dimension         3
 newton            on
 boundary          p   p   p
 atom_style        metal
 #kspace_style    ewald 1.0e-3
 processors        *  *  *

#================Structure=================#
 read_restart      ../OP/tmp.restart2
 

#================Potential=================#
 
 neighbor        2.0    nsq
 timestep        0.001

 thermo_style     custom step temp press ke pe etotal lx ly lz vol
 thermo_modify    flush  yes  lost  warn
 thermo           10000

 variable     Tdamp    equal    dt*100
 variable     Pdamp    equal    dt*1000

#===============Equilibrating==============#
 reset_timestep   0
 restart          10000  Cv.restart1   Cv.restart2
 velocity         all  create ${T1} 7675423 mom yes rot yes dist gaussian 
 fix              npt  all npt temp ${T1} ${T1} ${Tdamp} iso 1.0 1.0 ${Pdamp}
 #fix              momentum all momentum 1 linear 1 1 1
 dump             config   all     custom  100000  wp.config.* id type x y z
 dump_modify      config   sort    id
 dump_modify      config   format  line  "%7d %3d %20.12g %20.12g %20.12g" 
 run              ${R_relax}
 unfix            npt

 fix              npt  all npt temp ${T1} ${T1} ${Tdamp} iso 1.0 1.0 ${Pdamp}
 fix              thermo  all   ave/time  1  100  100  c_thermo_temp v_etotal  file  thermo_Cv_T1.dat
 run              ${R_run}
 unfix            npt

#==========Rise temp and Do statistics for Cv=========#
 fix              npt  all npt temp ${T1} ${T2} ${Tdamp} iso 1.0 1.0 ${Pdamp}
 variable         etotal  equal etotal
 run              ${R_relax}
 unfix npt

 fix              npt  all npt temp ${T2} ${T2} ${Tdamp} iso 1.0 1.0 ${Pdamp}
 fix              thermo  all   ave/time  1  100  100  c_thermo_temp v_etotal  file  thermo_Cv_T2.dat
 run              ${R_run}
 undump           config


#========================Done=========================#