 # =================================================#
 # The parameters used in my program m=1g/mol, k=1eV/Angstrom, a=1Angstrom
 # The code is written by ZYG (RWTH_Aachen)
 # The code is used to investigate the effect of divergence of thermal conductivity 
 # The email address: yanaguang.zhou@rwth-aachen.de
 ##==============================================##
 variable        T_equilibrium     equal  1e6   # 400 ps
 variable        E_equilibrium     equal  5e5  #  200 ps
 variable        Tfinal            equal  300 
 
 #==============The head of the programm===================#
 #====The order of Shell can not be used in the Windows====#
 dimension       3
 boundary        p   p   p
 units           metal
 atom_style      atomic
 processors      * * *
 newton          on
  
 #====================Atomic Structure======================#
 read_data       low_quartz.dat
 replicate       4  5  4 

 #==================potential======================# 
 
 pair_style      vashishta 
 pair_coeff      * *  /public/home/xdsc0365/software/lammps-7Aug19_correct/potentials/SiO.1997.vashishta O Si
 neighbor        2.0    nsq
 timestep        0.001
 
 variable        Tdamp    equal    100*dt
 variable        Pdamp    equal    1000*dt 
 
 compute         MyTemp  all  temp   
 thermo_style    custom  step temp c_MyTemp etotal press vol
 thermo_modify   flush   yes temp MyTemp lost warn
 thermo          1000 
 min_style       hftn
 minimize        0.000 0.000 1000 1000
 reset_timestep  0

#===================The ensemble===================#

 restart         1000 tmp.restart1 tmp.restart2
 velocity        all     create  ${Tfinal} 7675423 mom yes rot yes dist gaussian temp MyTemp
 dump            config all custom 250000 wp.config.* id type x y z
 dump_modify     config sort  id
 dump_modify     config format line "%7d %3d %20.12g %20.12g %20.12g"
 fix             NPT     all     npt  temp  ${Tfinal} ${Tfinal} ${Tdamp} iso 0.0 0.0 ${Pdamp}
 run             ${T_equilibrium} 
 unfix           NPT
 restart         0 

 fix             NVT     all     nvt  temp  ${Tfinal} ${Tfinal} ${Tdamp}
 run             ${T_equilibrium} 
 unfix           NVT
 restart         0 

 restart         1000 tmp1.restart1 tmp1.restart2
 fix             NVE     all     nve 
 run             ${E_equilibrium} 
 unfix           NVE
 restart         0  
 undump          config  
 
#===================== end===========================
