Si8
1.0  # change this to 0.95 0.96...1.05 then calculate system energy
        5.4687280655         0.0000000000         0.0000000000
        0.0000000000         5.4687280655         0.0000000000
        0.0000000000         0.0000000000         5.4687280655
   Si
    8 
Direct
     0.250000000         0.750000000         0.250000000
     0.000000000         0.000000000         0.500000000
     0.250000000         0.250000000         0.750000000
     0.000000000         0.500000000         0.000000000
     0.750000000         0.750000000         0.750000000
     0.500000000         0.000000000         0.000000000
     0.750000000         0.250000000         0.250000000
     0.500000000         0.500000000         0.500000000
