#==========================================#
# Simulation for calculating linear Thermal Expansion coefficient
# Originally Written by Xiaoliang Zhang from DUT
# Modified by Zheyi Zhang from DUT
#==========================================#
#===========Parameter Setting==============#
 variable     R_relax    equal     4e5
 variable     R_run      equal     2e5
 variable     R_run2     equal     4e5
 variable     T1         equal     290
 variable     T2         equal     310
#===========Program Initialization=========#
 units             metal
 dimension         3
 newton            on
 boundary          p   p   p
 atom_style        atomic
 processors        *  *  *

#================Structure=================#
 read_restart      ../Optimize/tmp.restart2

#================Potential=================#
 pair_style       vashishta 
 pair_coeff       * * ../../SiO.1997.vashishta Si O
 neighbor         2.0    nsq
 timestep         0.001

 thermo_style     custom step temp press ke pe etotal lx ly lz vol
 thermo_modify    flush  yes  lost  warn
 thermo           10000

 variable     Tdamp    equal    dt*100
 variable     Pdamp    equal    dt*1000

#===============Equilibrating==============#
 reset_timestep   0
 restart          10000  CLTE.restart1   CLTE.restart2
 velocity         all  create ${T1} 7675423 mom yes rot yes dist gaussian 
 fix              npt  all npt temp ${T1} ${T1} ${Tdamp} iso 1.0 1.0 ${Pdamp}
 #fix              momentum all momentum 1 linear 1 1 1
 dump             config   all     custom  100000  wp.config.* id type x y z
 dump_modify      config   sort    id
 dump_modify      config   format  line  "%7d %3d %20.12g %20.12g %20.12g" 
 run              ${R_relax}
 unfix            npt

#================Calculating stable size================#
 variable         lz      equal  lz
 fix              npt  all npt temp ${T1} ${T1} ${Tdamp} iso 1.0 1.0 ${Pdamp}
 fix              thermo  all    ave/time  1  100  100  c_thermo_temp v_lz   file  thermo_CLTE_T1.dat
 
 run              ${R_run}
 
 unfix            thermo
 unfix            npt
 
#=========Rise temp and Do statistics for CLTE========#
 fix              npt  all npt temp ${T1} ${T2} ${Tdamp} iso 1.0 1.0 ${Pdamp}
 variable         etotal  equal etotal
 run              ${R_relax}
 unfix            npt

 fix              npt  all npt temp ${T2} ${T2} ${Tdamp} iso 1.0 1.0 ${Pdamp}
 fix              thermo  all   ave/time  1  100  100  c_thermo_temp  v_lz  file  thermo_CLTE_T2.dat 
 
 run               ${R_run}
 
 unfix npt
 undump           config
#========================Done=========================#