 # =================================================#
 # The parameters used in my program m=1g/mol, k=1eV/Angstrom, a=1Angstrom
 # Originally written by Yanguang Zhou
 # Modified by Zheyi Zhang from DUT
 ##==============================================##
 variable        E_equilibrium     equal  1.0e7  # 10 ns
 variable        T_equilibrium     equal  2e5  # 10 ns
 variable        steps_heating     equal  2.5e5
 variable        steps_quench      equal  1.25e6
 variable        steps_cooled      equal  2.5e5
 variable        Tem               equal  300 
 variable        Tquench           equal  3000
 
 #==============The head of the programm===================#
 #====The order of Shell can not be used in the Windows====#
 dimension       3
 boundary        p   p   p
 units           metal
 atom_style      atomic
 processors      * * *
 newton          on
  
 #====================Atomic Structure======================#
 
 read_data       aSiO_cSiO.dat
 mass            1   28.09
 mass            2   16   
  
 #==================potential======================# 
 
 pair_style      vashishta 
 pair_coeff      * *  /public/home/xdsc0365/software/lammps-7Aug19_correct/potentials/SiO.1997.vashishta Si O

 neighbor        2.0   nsq
 timestep        0.001

 #====================Group======================#
 variable        Interface  equal    121.72     ###find in the 1st line in lammpsdata.txt  
 variable        dmid       equal    10
 variable        Interlo    equal    ${Interface}-${dmid}
 variable        Interhi    equal    ${Interface}+${dmid}
 region		 Inter1     block    INF INF  INF INF ${Interlo} ${Interface}
 region		 Inter2     block    INF INF  INF INF ${Interface} ${Interhi}
 group		 Inter1     region   Inter1
 group		 Inter2     region   Inter2

 #variable        Hz     equal    zhi-${dmid}
 #variable        Lz     equal    zlo+${dmid}
 #variable        Hz1    equal    ${Hz}-${dmid}
 #variable        Lz1    equal    ${Lz}+${dmid} 
 
 #region          wall_up    block   INF INF INF INF ${Hz} INF units box
 #region          wall_down  block   INF INF INF INF INF ${Lz} units box 
 #region          wall       union  2  wall_up  wall_down units box
 #group           wall       region wall
 #group           mobile     subtract  all  wall
 
 #region          sink       block     INF INF  INF INF ${Hz1} ${Hz}  units box
 #region          source     block     INF INF  INF INF ${Lz} ${Lz1}  units box
 #group           source     region    source
 #group           sink       region    sink
 #group           mobile1    subtract  mobile  source sink
 
 region          ASiO     block   INF INF INF INF ${Interface} INF units box
 region          CSiO     block   INF INF INF INF INF ${Interface} units box 
 group           ASiO     region  ASiO
 group           CSiO     region  CSiO
 
 compute         MyTemp      all     temp
 compute         Templow     CSiO    temp
 compute         Temphigh    ASiO    temp
 compute         TInter3     Inter1  temp
 compute         TInter4     Inter2  temp
 variable        DeltaT1     equal   c_TInter4-c_TInter3 
 thermo_style   custom  step c_MyTemp c_Templow c_TInter3 c_Temphigh c_TInter4 etotal press vol

 min_style       hftn
 min_modify      line     quadratic
 thermo          1000
 minimize        1.0e-10 1.0e-10 10000 10000
 reset_timestep  0
 
#===================Annealing===================#
  variable       seed1    equal    3423435
  variable       seed2    equal    23422327
  variable       seed3    equal    8760859
  variable       Tdamp    equal    100*dt
  variable       Pdamp    equal    1000*dt

  restart        1000  tmp.restart1 tmp.restart2 
  velocity       all        create   ${Tquench}  2349659  dist  gaussian
  fix            unthermal  CSiO     setforce 0.0 0.0 0.0
  fix            NPH0       ASiO     nve
  fix            NVT0       ASiO     langevin ${Tquench} ${Tquench} ${Tdamp} ${seed1} # zero yes
  dump           config     all      custom 50000 melting_*.dat id type x y z
  dump_modify    config     sort     id 
  run            ${steps_heating}
  unfix          NVT0
  unfix          NPH0 
  undump         config
  
  fix            NVE        ASiO     nve
  fix            NVT1       ASiO     langevin ${Tquench} ${Tem} ${Tdamp} ${seed2} 
  dump           config     all      custom 250000 quneching_*.dat id type x y z
  dump_modify    config     sort     id 
  run            ${steps_quench}
  unfix          NVT1
  unfix          NVE
  undump         config

  restart        1000  tmp1.restart1 tmp1.restart2
  fix            NPH2       ASiO     nph iso 0.0 0.0 ${Pdamp}
  fix            NVT2       ASiO     langevin ${Tem} ${Tem} ${Tdamp} ${seed3} 
  dump           config     all      custom 50000 cooling_*.dat id type x y z
  dump_modify    config     sort     id   
  run            ${steps_cooled}
  unfix          NPH2
  unfix          NVT2 
  undump         config
  unfix          unthermal
  restart        0
  reset_timestep 0
 
#=====================End===========================#
