 # =================================================#
 # The parameters used in my program m=1g/mol, k=1eV/Angstrom, a=1Angstrom
 # Originally written by Yanguang Zhou
 # Modified by Zheyi Zhang from DUT
 ##==============================================##
 variable        T_equilibrium     equal  1e5   # 100 ps
 variable        E_equilibrium     equal  2e5  #  200 ps
 variable        Tfinal            equal  300 
 
 #==============The head of the programm===================#
 #====The order of Shell can not be used in the Windows====#
 dimension       3
 boundary        p   p   p
 units           metal
 atom_style      atomic
 processors      * * *
 newton          on
  
 #====================Atomic Structure======================#
 read_restart     ../Annealing/tmp2.restart2
 #replicate       6  6  60 

 variable        dmid   equal    10
 variable        Hz     equal    zhi-${dmid}
 variable        Lz     equal    zlo+${dmid}
 variable        Hz1    equal    ${Hz}-${dmid}
 variable        Lz1    equal    ${Lz}+${dmid} 
 
 region          wall_up     block   INF INF INF INF ${Hz} INF units box
 region          wall_down   block   INF INF INF INF INF ${Lz} units box 
 region          wall        union  2  wall_up  wall_down units box
 group           wall    region wall
 group           mobile  subtract  all  wall
 
 region          source     block     INF INF  INF INF ${Hz1} ${Hz}  units box
 region          sink       block     INF INF  INF INF ${Lz} ${Lz1}  units box
 group           source     region    source
 group           sink       region    sink
 group           mobile1  subtract  mobile  source sink

 #==================potential======================# 
 
 pair_style      vashishta 
 pair_coeff      * * /public/home/xdsc0369/work/zzyi/lammps/SiO2/SiO.1997.vashishta Si O
 neighbor        2.0    nsq
 timestep        0.001
 
 variable        Tdamp    equal    100*dt
 variable        Pdamp    equal    1000*dt 
 
 compute         MyTemp  all  temp   
 thermo_style    custom  step temp c_MyTemp etotal press vol
 thermo_modify   flush   yes temp MyTemp lost warn
 thermo          1000 
 min_style       hftn
 minimize        0.000 0.000 1000 1000
 reset_timestep  0

#===================The ensemble===================#

 restart         1000 tmp.restart1 tmp.restart2
 dump            config all custom 50000 wp.config.* id type x y z
 dump_modify     config sort  id
 dump_modify     config format line "%7d %3d %20.12g %20.12g %20.12g"
 velocity        all     create  ${Tfinal} 7675423 mom yes rot yes dist gaussian temp MyTemp
 #fix             NPT     all     npt  temp  ${Tfinal} ${Tfinal} ${Tdamp} iso 0.1 0.1 ${Pdamp}
 #run             ${T_equilibrium}
 #unfix           NPT 
 
 fix             NVT     all     nvt  temp  ${Tfinal} ${Tfinal} ${Tdamp}
 run             ${T_equilibrium} 
 unfix           NVT
 restart         0 

 change_box      all boundary p p s
 fix             unthermal  wall   setforce 0.0 0.0 0.0
 fix             NVT     mobile     nvt  temp  ${Tfinal} ${Tfinal} ${Tdamp}
 run             ${T_equilibrium} 
 unfix           NVT
 restart         0

 restart         1000 tmp1.restart1 tmp1.restart2
 fix             NVE     mobile     nve 
 run             ${T_equilibrium} 
 unfix           NVE
 unfix           unthermal
 restart         0  
 undump          config  
 
#===================== end===========================#
